n = 14;

R =
[|0,0,0,0,0,0,6,6,6,6,6,6,4,0,
 |2,2,0,0,0,0,0,0,6,0,2,0,4,0,
 |0,0,0,5,5,5,5,5,6,0,2,6,4,1,
 |0,0,2,0,0,0,0,0,6,0,0,6,4,0,
 |7,1,2,0,3,3,3,0,6,6,0,6,6,0,
 |7,0,0,0,0,0,0,0,6,6,0,6,6,4,
 |7,0,0,0,0,0,0,0,6,6,0,6,6,4,
 |7,0,0,0,3,3,3,0,0,6,0,6,6,4,
 |7,5,5,5,5,5,0,2,0,6,1,0,6,4,
 |7,0,0,0,0,0,1,2,0,6,0,0,6,0,
 |7,0,0,0,0,2,6,6,6,6,6,6,0,0,
 |0,0,0,0,0,2,0,1,0,0,0,0,0,0,
 |0,1,1,0,1,0,0,0,0,0,0,0,0,1,
 |0,0,0,0,0,0,3,3,3,0,0,0,0,0,
 |];

